words_hard_train/5147.qaiger
aag 58 14 0 1 44
2
4
8
12
16
20
28
34
44
58
72
86
98
106
116
6 3 5
10 6 9
14 10 13
18 14 17
22 19 20
24 18 21
26 23 25
30 28 3
32 29 2
36 33 34
38 31 37
40 2 4
42 41 7
46 42 45
48 39 47
50 43 44
52 49 51
54 7 8
56 55 11
60 56 59
62 53 61
64 57 58
66 63 65
68 11 12
70 69 15
74 70 73
76 67 75
78 71 72
80 77 79
82 15 16
84 83 19
88 84 87
90 81 89
92 85 86
94 91 93
96 26 94
100 96 98
102 27 99
104 102 95
108 24 107
110 25 106
112 109 111
114 105 113
116 101 115
i0 2 y2[1]
i1 2 y2[2]
i2 2 y2[3]
i3 2 y2[4]
i4 2 y2[5]
i5 2 y2[6]
i6 1 x2[2]
i7 2 y2[0]
i8 1 x2[3]
i9 1 x2[4]
i10 1 x2[5]
i11 1 x2[6]
i12 1 x2[7]
i13 2 y2[7]
o0 bv[0]
c
simplified
  <
    subtract
      1
      2 y2
    or
      1
      >> 1
        1 x2
