words_hard_train/5147.qaiger.qdimacs
p cnf 58 133
a 36 43 14 49 22 29 0
e 1 2 3 4 5 6 7 8 9 10 11 12 13 15 16 17 18 19 20 21 23 24 25 26 27 28 30 31 32 33 34 35 37 38 39 40 41 42 44 45 46 47 48 50 51 52 53 54 55 56 57 58 0
1 2 3 0
-1 -3 0
-2 -3 0
-3 4 5 0
3 -5 0
-4 -5 0
-5 6 7 0
5 -7 0
-6 -7 0
-7 8 9 0
7 -9 0
-8 -9 0
9 -10 11 0
-9 -11 0
10 -11 0
-9 10 12 0
9 -12 0
-10 -12 0
11 12 13 0
-11 -13 0
-12 -13 0
-14 1 15 0
14 -15 0
-1 -15 0
14 -1 16 0
-14 -16 0
1 -16 0
16 -17 18 0
-16 -18 0
17 -18 0
15 18 19 0
-15 -19 0
-18 -19 0
-1 -2 20 0
1 -20 0
2 -20 0
20 3 21 0
-20 -21 0
-3 -21 0
-21 22 23 0
21 -23 0
-22 -23 0
19 23 24 0
-19 -24 0
-23 -24 0
21 -22 25 0
-21 -25 0
22 -25 0
24 25 26 0
-24 -26 0
-25 -26 0
3 -4 27 0
-3 -27 0
4 -27 0
27 5 28 0
-27 -28 0
-5 -28 0
-28 29 30 0
28 -30 0
-29 -30 0
26 30 31 0
-26 -31 0
-30 -31 0
28 -29 32 0
-28 -32 0
29 -32 0
31 32 33 0
-31 -33 0
-32 -33 0
5 -6 34 0
-5 -34 0
6 -34 0
34 7 35 0
-34 -35 0
-7 -35 0
-35 36 37 0
35 -37 0
-36 -37 0
33 37 38 0
-33 -38 0
-37 -38 0
35 -36 39 0
-35 -39 0
36 -39 0
38 39 40 0
-38 -40 0
-39 -40 0
7 -8 41 0
-7 -41 0
8 -41 0
41 9 42 0
-41 -42 0
-9 -42 0
-42 43 44 0
42 -44 0
-43 -44 0
40 44 45 0
-40 -45 0
-44 -45 0
42 -43 46 0
-42 -46 0
43 -46 0
45 46 47 0
-45 -47 0
-46 -47 0
-13 -47 48 0
13 -48 0
47 -48 0
-48 -49 50 0
48 -50 0
49 -50 0
13 49 51 0
-13 -51 0
-49 -51 0
-51 47 52 0
51 -52 0
-47 -52 0
-12 53 54 0
12 -54 0
-53 -54 0
12 -53 55 0
-12 -55 0
53 -55 0
54 55 56 0
-54 -56 0
-55 -56 0
52 56 57 0
-52 -57 0
-56 -57 0
50 57 58 0
-50 -58 0
-57 -58 0
58 0
